data/solutions/planning/wellformed/hard/sequential/wellformed_hard_instance19_cplex.sol
Elapsed time: 6.64
Nodes explored: -
Nodes left: -
Relative gap: -
Upper bound: 25748398.0
Lower bound: -
C[0]=25171.0
C[1]=25168.0
C[2]=25168.0
C[3]=25168.0
C[4]=25168.0
C[5]=25168.0
C[6]=25168.0
C[7]=25168.0
C[8]=25168.0
C[9]=25166.0
y[0]=5
y[1]=2
y[2]=9
y[3]=0
y[4]=8
y[5]=0
y[6]=4
y[7]=9
y[8]=8
y[9]=6
y[10]=6
y[11]=0
y[12]=2
y[13]=7
y[14]=7
y[15]=1
y[16]=0
y[17]=3
y[18]=6
y[19]=7
y[20]=0
y[21]=5
y[22]=7
y[23]=7
y[24]=6
y[25]=0
y[26]=5
y[27]=5
y[28]=2
y[29]=2
y[30]=3
y[31]=8
y[32]=3
y[33]=7
y[34]=1
y[35]=3
y[36]=2
y[37]=0
y[38]=5
y[39]=1
y[40]=5
y[41]=0
y[42]=0
y[43]=1
y[44]=0
y[45]=7
y[46]=4
y[47]=9
y[48]=0
y[49]=2
y[50]=5
y[51]=6
y[52]=0
y[53]=1
y[54]=1
y[55]=3
y[56]=5
y[57]=7
y[58]=4
y[59]=9
y[60]=0
y[61]=0
y[62]=1
y[63]=4
y[64]=2
y[65]=8
y[66]=4
y[67]=2
y[68]=2
y[69]=0
y[70]=1
y[71]=9
y[72]=0
y[73]=1
y[74]=3
y[75]=1
y[76]=4
y[77]=8
y[78]=4
y[79]=7
y[80]=2
y[81]=0
y[82]=3
y[83]=1
y[84]=2
y[85]=0
y[86]=1
y[87]=1
y[88]=8
y[89]=9
y[90]=0
y[91]=7
y[92]=3
y[93]=0
y[94]=0
y[95]=5
y[96]=0
y[97]=0
y[98]=5
y[99]=3
y[100]=4
y[101]=6
y[102]=0
y[103]=0
y[104]=3
y[105]=1
y[106]=5
y[107]=2
y[108]=2
y[109]=0
y[110]=3
y[111]=2
y[112]=6
y[113]=0
y[114]=8
y[115]=2
y[116]=0
y[117]=7
y[118]=9
y[119]=9
y[120]=1
y[121]=1
y[122]=1
y[123]=4
y[124]=5
y[125]=0
y[126]=8
y[127]=0
y[128]=6
y[129]=3
y[130]=5
y[131]=2
y[132]=3
y[133]=6
y[134]=7
y[135]=2
y[136]=5
y[137]=2
y[138]=4
y[139]=8
y[140]=4
y[141]=1
y[142]=1
y[143]=8
y[144]=2
y[145]=4
y[146]=0
y[147]=2
y[148]=3
y[149]=0
y[150]=0
y[151]=4
y[152]=9
y[153]=8
y[154]=8
y[155]=6
y[156]=6
y[157]=8
y[158]=2
y[159]=1
y[160]=3
y[161]=6
y[162]=4
y[163]=0
y[164]=0
y[165]=6
y[166]=0
y[167]=0
y[168]=6
y[169]=1
y[170]=3
y[171]=4
y[172]=3
y[173]=3
y[174]=4
y[175]=0
y[176]=0
y[177]=0
y[178]=4
y[179]=5
y[180]=1
y[181]=2
y[182]=3
y[183]=0
y[184]=0
y[185]=1
y[186]=1
y[187]=5
y[188]=1
y[189]=2
y[190]=6
y[191]=0
y[192]=1
y[193]=2
y[194]=0
y[195]=2
y[196]=4
y[197]=1
y[198]=0
y[199]=0
y[200]=6
y[201]=2
y[202]=0
y[203]=7
y[204]=2
y[205]=9
y[206]=1
y[207]=6
y[208]=4
y[209]=2
y[210]=2
y[211]=5
y[212]=2
y[213]=2
y[214]=7
y[215]=9
y[216]=0
y[217]=2
y[218]=0
y[219]=9
y[220]=0
y[221]=1
y[222]=0
y[223]=9
y[224]=8
y[225]=1
y[226]=2
y[227]=0
y[228]=6
y[229]=7
y[230]=9
y[231]=2
y[232]=0
y[233]=1
y[234]=8
y[235]=8
y[236]=0
y[237]=4
y[238]=3
y[239]=2
y[240]=7
y[241]=0
y[242]=8
y[243]=7
y[244]=9
y[245]=5
y[246]=1
y[247]=7
y[248]=1
y[249]=8
y[250]=1
y[251]=1
y[252]=8
y[253]=0
y[254]=3
y[255]=1
y[256]=6
y[257]=4
y[258]=0
y[259]=4
y[260]=2
y[261]=5
y[262]=2
y[263]=2
y[264]=5
y[265]=7
y[266]=0
y[267]=5
y[268]=1
y[269]=0
y[270]=0
y[271]=5
y[272]=1
y[273]=0
y[274]=9
y[275]=0
y[276]=9
y[277]=3
y[278]=3
y[279]=9
y[280]=1
y[281]=3
y[282]=0
y[283]=3
y[284]=2
y[285]=8
y[286]=4
y[287]=0
y[288]=8
y[289]=8
y[290]=2
y[291]=1
y[292]=0
y[293]=1
y[294]=9
y[295]=0
y[296]=6
y[297]=1
y[298]=6
y[299]=9
y[300]=0
y[301]=0
y[302]=7
y[303]=9
y[304]=0
y[305]=2
y[306]=9
y[307]=3
y[308]=8
y[309]=3
y[310]=0
y[311]=5
y[312]=7
y[313]=0
y[314]=4
y[315]=3
y[316]=1
y[317]=6
y[318]=0
y[319]=0
y[320]=3
y[321]=3
y[322]=8
y[323]=9
y[324]=5
y[325]=0
y[326]=0
y[327]=0
y[328]=1
y[329]=7
y[330]=4
y[331]=6
y[332]=6
y[333]=6
y[334]=3
y[335]=8
y[336]=0
y[337]=0
y[338]=5
y[339]=2
y[340]=0
y[341]=0
y[342]=5
y[343]=4
y[344]=8
y[345]=9
y[346]=2
y[347]=9
y[348]=4
y[349]=4
y[350]=4
y[351]=4
y[352]=2
y[353]=6
y[354]=2
y[355]=6
y[356]=2
y[357]=5
y[358]=7
y[359]=4
y[360]=1
y[361]=6
y[362]=4
y[363]=3
y[364]=0
y[365]=8
y[366]=7
y[367]=6
y[368]=4
y[369]=1
y[370]=5
y[371]=1
y[372]=1
y[373]=6
y[374]=5
y[375]=7
y[376]=4
y[377]=3
y[378]=5
y[379]=9
y[380]=8
y[381]=5
y[382]=0
y[383]=0
y[384]=9
y[385]=5
y[386]=0
y[387]=2
y[388]=3
y[389]=3
y[390]=1
y[391]=2
y[392]=2
y[393]=0
y[394]=8
y[395]=3
y[396]=5
y[397]=4
y[398]=0
y[399]=1
y[400]=4
y[401]=0
y[402]=3
y[403]=0
y[404]=3
y[405]=8
y[406]=7
y[407]=0
y[408]=6
y[409]=1
y[410]=1
y[411]=0
y[412]=8
y[413]=3
y[414]=4
y[415]=8
y[416]=3
y[417]=8
y[418]=0
y[419]=1
y[420]=0
y[421]=9
y[422]=9
y[423]=8
y[424]=2
y[425]=1
y[426]=6
y[427]=5
y[428]=7
y[429]=7
y[430]=8
y[431]=1
y[432]=1
y[433]=3
y[434]=0
y[435]=1
y[436]=4
y[437]=0
y[438]=1
y[439]=7
y[440]=3
y[441]=1
y[442]=0
y[443]=9
y[444]=8
y[445]=2
y[446]=8
y[447]=8
y[448]=5
y[449]=3
y[450]=2
y[451]=2
y[452]=6
y[453]=1
y[454]=0
y[455]=7
y[456]=0
y[457]=7
y[458]=0
y[459]=0
y[460]=6
y[461]=7
y[462]=9
y[463]=7
y[464]=0
y[465]=0
y[466]=1
y[467]=7
y[468]=8
y[469]=2
y[470]=1
y[471]=0
y[472]=5
y[473]=7
y[474]=2
y[475]=6
y[476]=5
y[477]=0
y[478]=5
y[479]=5
y[480]=0
y[481]=9
y[482]=3
y[483]=8
y[484]=8
y[485]=1
y[486]=6
y[487]=0
y[488]=0
y[489]=0
y[490]=0
y[491]=6
y[492]=7
y[493]=4
y[494]=0
y[495]=5
y[496]=0
y[497]=1
y[498]=6
y[499]=2
